70
1 0 2
2 0 10
2 1 11
3 0 4
3 1 8
3 2 5
4 0 2
4 1 7
4 2 11
4 3 7
5 0 3
5 1 2
5 2 5
5 3 2
5 4 2
6 0 9
6 1 6
6 2 3
6 3 4
6 4 9
6 5 2
7 0 1
7 1 5
7 2 4
7 3 3
7 4 10
7 5 3
7 6 11
8 0 2
8 1 11
8 2 11
8 3 8
8 4 2
8 5 9
8 6 7
8 7 11
9 0 5
9 1 3
9 2 1
9 3 11
9 4 9
9 5 2
9 6 5
9 7 12
9 8 1
10 0 10
10 1 8
10 2 10
10 3 11
10 4 5
10 5 6
10 6 12
10 7 11
10 8 4
10 9 7
11 0 1
11 1 2
11 2 3
11 3 6
11 4 1
11 5 1
11 6 1
11 7 10
11 8 11
11 9 5
11 10 10
12 0 9
12 1 6
12 2 8
12 3 6
12 4 12
12 5 12
12 6 3
12 7 9
12 8 12
12 9 3
12 10 9
12 11 12
13 0 10
13 1 5
13 2 6
13 3 1
13 4 12
13 5 10
13 6 4
13 7 8
13 8 5
13 9 2
13 10 8
13 11 11
13 12 1
14 0 12
14 1 12
14 2 8
14 3 11
14 4 12
14 5 5
14 6 2
14 7 6
14 8 4
14 9 4
14 10 11
14 11 10
14 12 8
14 13 3
15 0 12
15 1 5
15 2 3
15 3 11
15 4 9
15 5 11
15 6 11
15 7 12
15 8 6
15 9 4
15 10 6
15 11 8
15 12 2
15 13 11
15 14 3
16 0 12
16 1 5
16 2 8
16 3 4
16 4 3
16 5 6
16 6 7
16 7 9
16 8 4
16 9 12
16 10 10
16 11 7
16 12 3
16 13 10
16 14 4
16 15 1
17 0 5
17 1 9
17 2 9
17 3 4
17 4 3
17 5 3
17 6 2
17 7 11
17 8 12
17 9 4
17 10 3
17 11 11
17 12 6
17 13 6
17 14 1
17 15 9
17 16 5
18 0 5
18 1 10
18 2 4
18 3 10
18 4 12
18 5 2
18 6 4
18 7 10
18 8 9
18 9 5
18 10 6
18 11 6
18 12 5
18 13 5
18 14 1
18 15 5
18 16 2
18 17 1
19 0 8
19 1 4
19 2 11
19 3 11
19 4 7
19 5 2
19 6 7
19 7 4
19 8 8
19 9 1
19 10 2
19 11 5
19 12 10
19 13 11
19 14 2
19 15 5
19 16 5
19 17 9
19 18 9
20 0 10
20 1 6
20 2 5
20 3 7
20 4 12
20 5 10
20 6 5
20 7 7
20 8 8
20 9 3
20 10 5
20 11 1
20 12 6
20 13 9
20 14 2
20 15 6
20 16 8
20 17 5
20 18 11
20 19 11
21 0 8
21 1 2
21 2 4
21 3 8
21 4 5
21 5 6
21 6 6
21 7 7
21 8 10
21 9 1
21 10 3
21 11 10
21 12 2
21 13 9
21 14 6
21 15 2
21 16 2
21 17 6
21 18 1
21 19 4
21 20 5
22 0 5
22 1 7
22 2 12
22 3 7
22 4 10
22 5 3
22 6 6
22 7 9
22 8 1
22 9 4
22 10 8
22 11 6
22 12 10
22 13 9
22 14 7
22 15 10
22 16 9
22 17 6
22 18 3
22 19 12
22 20 2
22 21 7
23 0 2
23 1 8
23 2 3
23 3 10
23 4 1
23 5 12
23 6 3
23 7 1
23 8 11
23 9 3
23 10 1
23 11 11
23 12 2
23 13 10
23 14 3
23 15 7
23 16 2
23 17 7
23 18 8
23 19 9
23 20 2
23 21 11
23 22 4
24 0 5
24 1 11
24 2 7
24 3 10
24 4 6
24 5 9
24 6 5
24 7 1
24 8 7
24 9 3
24 10 7
24 11 3
24 12 11
24 13 11
24 14 8
24 15 7
24 16 1
24 17 1
24 18 5
24 19 8
24 20 10
24 21 12
24 22 12
24 23 12
25 0 11
25 1 7
25 2 10
25 3 11
25 4 1
25 5 8
25 6 6
25 7 10
25 8 12
25 9 12
25 10 1
25 11 6
25 12 7
25 13 9
25 14 9
25 15 8
25 16 10
25 17 10
25 18 7
25 19 2
25 20 4
25 21 2
25 22 3
25 23 9
25 24 4
26 0 10
26 1 9
26 2 3
26 3 8
26 4 12
26 5 9
26 6 10
26 7 11
26 8 11
26 9 8
26 10 3
26 11 12
26 12 9
26 13 10
26 14 8
26 15 10
26 16 10
26 17 3
26 18 10
26 19 7
26 20 3
26 21 5
26 22 10
26 23 2
26 24 8
26 25 2
27 0 10
27 1 8
27 2 11
27 3 2
27 4 3
27 5 9
27 6 1
27 7 4
27 8 4
27 9 9
27 10 1
27 11 5
27 12 4
27 13 6
27 14 7
27 15 10
27 16 11
27 17 3
27 18 4
27 19 5
27 20 1
27 21 7
27 22 1
27 23 10
27 24 9
27 25 11
27 26 6
28 0 3
28 1 2
28 2 12
28 3 9
28 4 8
28 5 3
28 6 7
28 7 6
28 8 1
28 9 9
28 10 12
28 11 7
28 12 11
28 13 5
28 14 8
28 15 7
28 16 8
28 17 1
28 18 6
28 19 5
28 20 10
28 21 3
28 22 3
28 23 9
28 24 2
28 25 12
28 26 9
28 27 6
29 0 6
29 1 9
29 2 4
29 3 5
29 4 3
29 5 6
29 6 1
29 7 9
29 8 7
29 9 4
29 10 5
29 11 11
29 12 5
29 13 5
29 14 10
29 15 10
29 16 10
29 17 8
29 18 1
29 19 5
29 20 11
29 21 12
29 22 4
29 23 9
29 24 10
29 25 11
29 26 1
29 27 1
29 28 12
30 0 6
30 1 4
30 2 9
30 3 9
30 4 8
30 5 4
30 6 6
30 7 4
30 8 11
30 9 12
30 10 8
30 11 6
30 12 7
30 13 8
30 14 11
30 15 10
30 16 9
30 17 1
30 18 10
30 19 6
30 20 6
30 21 4
30 22 4
30 23 5
30 24 12
30 25 11
30 26 6
30 27 5
30 28 9
30 29 9
31 0 5
31 1 9
31 2 7
31 3 8
31 4 10
31 5 7
31 6 3
31 7 1
31 8 5
31 9 5
31 10 11
31 11 3
31 12 6
31 13 6
31 14 8
31 15 12
31 16 2
31 17 3
31 18 1
31 19 9
31 20 7
31 21 3
31 22 4
31 23 2
31 24 2
31 25 4
31 26 11
31 27 11
31 28 7
31 29 12
31 30 2
32 0 4
32 1 7
32 2 8
32 3 8
32 4 9
32 5 12
32 6 3
32 7 6
32 8 9
32 9 7
32 10 11
32 11 7
32 12 3
32 13 2
32 14 1
32 15 1
32 16 6
32 17 5
32 18 3
32 19 9
32 20 5
32 21 8
32 22 7
32 23 3
32 24 4
32 25 9
32 26 4
32 27 9
32 28 8
32 29 11
32 30 8
32 31 3
33 0 11
33 1 8
33 2 9
33 3 6
33 4 3
33 5 3
33 6 7
33 7 2
33 8 6
33 9 9
33 10 9
33 11 7
33 12 7
33 13 5
33 14 7
33 15 8
33 16 7
33 17 8
33 18 12
33 19 9
33 20 2
33 21 6
33 22 5
33 23 7
33 24 3
33 25 1
33 26 9
33 27 12
33 28 9
33 29 5
33 30 10
33 31 12
33 32 2
34 0 1
34 1 2
34 2 5
34 3 11
34 4 2
34 5 10
34 6 3
34 7 12
34 8 11
34 9 3
34 10 8
34 11 2
34 12 6
34 13 1
34 14 10
34 15 7
34 16 1
34 17 5
34 18 8
34 19 12
34 20 10
34 21 4
34 22 9
34 23 8
34 24 9
34 25 2
34 26 3
34 27 9
34 28 5
34 29 8
34 30 2
34 31 12
34 32 8
34 33 2
35 0 9
35 1 4
35 2 2
35 3 5
35 4 10
35 5 11
35 6 7
35 7 11
35 8 6
35 9 7
35 10 12
35 11 8
35 12 3
35 13 5
35 14 9
35 15 3
35 16 1
35 17 5
35 18 9
35 19 1
35 20 7
35 21 3
35 22 10
35 23 12
35 24 1
35 25 7
35 26 10
35 27 1
35 28 12
35 29 1
35 30 10
35 31 1
35 32 5
35 33 9
35 34 7
36 0 7
36 1 9
36 2 12
36 3 1
36 4 9
36 5 1
36 6 9
36 7 12
36 8 6
36 9 7
36 10 1
36 11 2
36 12 9
36 13 4
36 14 7
36 15 3
36 16 10
36 17 2
36 18 6
36 19 3
36 20 2
36 21 7
36 22 8
36 23 1
36 24 1
36 25 8
36 26 12
36 27 10
36 28 12
36 29 8
36 30 2
36 31 3
36 32 10
36 33 12
36 34 3
36 35 3
37 0 3
37 1 7
37 2 10
37 3 4
37 4 4
37 5 2
37 6 9
37 7 9
37 8 12
37 9 1
37 10 3
37 11 6
37 12 4
37 13 7
37 14 11
37 15 8
37 16 11
37 17 10
37 18 1
37 19 4
37 20 9
37 21 12
37 22 1
37 23 10
37 24 5
37 25 8
37 26 10
37 27 12
37 28 10
37 29 8
37 30 11
37 31 3
37 32 12
37 33 9
37 34 5
37 35 8
37 36 1
38 0 6
38 1 11
38 2 11
38 3 10
38 4 12
38 5 12
38 6 3
38 7 8
38 8 7
38 9 4
38 10 10
38 11 12
38 12 2
38 13 7
38 14 10
38 15 6
38 16 5
38 17 12
38 18 2
38 19 7
38 20 4
38 21 2
38 22 3
38 23 9
38 24 6
38 25 11
38 26 1
38 27 11
38 28 1
38 29 9
38 30 8
38 31 6
38 32 2
38 33 3
38 34 4
38 35 5
38 36 10
38 37 9
39 0 9
39 1 1
39 2 10
39 3 11
39 4 9
39 5 2
39 6 12
39 7 2
39 8 9
39 9 2
39 10 12
39 11 7
39 12 2
39 13 9
39 14 9
39 15 8
39 16 1
39 17 6
39 18 7
39 19 8
39 20 2
39 21 8
39 22 10
39 23 10
39 24 2
39 25 10
39 26 1
39 27 6
39 28 10
39 29 11
39 30 1
39 31 2
39 32 11
39 33 4
39 34 3
39 35 2
39 36 10
39 37 9
39 38 2
40 0 6
40 1 7
40 2 2
40 3 12
40 4 1
40 5 10
40 6 2
40 7 12
40 8 9
40 9 4
40 10 7
40 11 10
40 12 9
40 13 4
40 14 8
40 15 3
40 16 6
40 17 6
40 18 9
40 19 11
40 20 8
40 21 11
40 22 2
40 23 11
40 24 8
40 25 7
40 26 8
40 27 11
40 28 6
40 29 9
40 30 6
40 31 12
40 32 10
40 33 5
40 34 9
40 35 4
40 36 4
40 37 7
40 38 4
40 39 10
41 0 3
41 1 11
41 2 6
41 3 10
41 4 5
41 5 12
41 6 11
41 7 7
41 8 12
41 9 3
41 10 6
41 11 7
41 12 2
41 13 7
41 14 2
41 15 7
41 16 10
41 17 6
41 18 5
41 19 7
41 20 12
41 21 3
41 22 1
41 23 8
41 24 8
41 25 8
41 26 2
41 27 7
41 28 12
41 29 7
41 30 2
41 31 11
41 32 11
41 33 7
41 34 12
41 35 6
41 36 4
41 37 4
41 38 11
41 39 8
41 40 4
42 0 9
42 1 12
42 2 1
42 3 11
42 4 7
42 5 1
42 6 2
42 7 3
42 8 9
42 9 5
42 10 3
42 11 11
42 12 6
42 13 8
42 14 3
42 15 2
42 16 5
42 17 6
42 18 5
42 19 7
42 20 10
42 21 11
42 22 5
42 23 5
42 24 7
42 25 9
42 26 8
42 27 3
42 28 4
42 29 11
42 30 6
42 31 3
42 32 2
42 33 2
42 34 5
42 35 8
42 36 8
42 37 6
42 38 3
42 39 10
42 40 8
42 41 11
43 0 12
43 1 4
43 2 11
43 3 11
43 4 8
43 5 1
43 6 12
43 7 4
43 8 2
43 9 9
43 10 4
43 11 10
43 12 5
43 13 8
43 14 6
43 15 2
43 16 7
43 17 8
43 18 3
43 19 10
43 20 9
43 21 12
43 22 8
43 23 11
43 24 6
43 25 12
43 26 10
43 27 5
43 28 7
43 29 12
43 30 1
43 31 12
43 32 8
43 33 12
43 34 12
43 35 4
43 36 1
43 37 4
43 38 5
43 39 4
43 40 10
43 41 1
43 42 5
44 0 10
44 1 9
44 2 9
44 3 6
44 4 11
44 5 1
44 6 4
44 7 5
44 8 11
44 9 12
44 10 6
44 11 4
44 12 6
44 13 7
44 14 7
44 15 1
44 16 9
44 17 8
44 18 11
44 19 8
44 20 7
44 21 1
44 22 10
44 23 6
44 24 10
44 25 2
44 26 6
44 27 11
44 28 1
44 29 4
44 30 10
44 31 7
44 32 10
44 33 8
44 34 4
44 35 6
44 36 7
44 37 6
44 38 3
44 39 6
44 40 4
44 41 7
44 42 5
44 43 9
45 0 5
45 1 7
45 2 3
45 3 12
45 4 9
45 5 6
45 6 3
45 7 6
45 8 9
45 9 6
45 10 8
45 11 7
45 12 11
45 13 10
45 14 8
45 15 4
45 16 7
45 17 7
45 18 9
45 19 10
45 20 12
45 21 6
45 22 6
45 23 3
45 24 6
45 25 12
45 26 11
45 27 10
45 28 8
45 29 12
45 30 9
45 31 9
45 32 8
45 33 8
45 34 1
45 35 9
45 36 4
45 37 3
45 38 11
45 39 1
45 40 8
45 41 6
45 42 7
45 43 3
45 44 9
46 0 9
46 1 1
46 2 9
46 3 11
46 4 6
46 5 2
46 6 11
46 7 9
46 8 2
46 9 5
46 10 7
46 11 2
46 12 10
46 13 4
46 14 4
46 15 11
46 16 11
46 17 3
46 18 10
46 19 2
46 20 12
46 21 12
46 22 12
46 23 12
46 24 7
46 25 6
46 26 8
46 27 10
46 28 12
46 29 3
46 30 11
46 31 12
46 32 5
46 33 7
46 34 11
46 35 12
46 36 8
46 37 2
46 38 5
46 39 11
46 40 11
46 41 9
46 42 6
46 43 1
46 44 2
46 45 4
47 0 9
47 1 10
47 2 4
47 3 6
47 4 2
47 5 5
47 6 6
47 7 2
47 8 8
47 9 10
47 10 1
47 11 5
47 12 12
47 13 4
47 14 10
47 15 10
47 16 2
47 17 11
47 18 4
47 19 7
47 20 8
47 21 11
47 22 10
47 23 1
47 24 8
47 25 2
47 26 2
47 27 8
47 28 5
47 29 3
47 30 7
47 31 6
47 32 12
47 33 10
47 34 11
47 35 12
47 36 12
47 37 1
47 38 4
47 39 10
47 40 4
47 41 3
47 42 9
47 43 11
47 44 2
47 45 10
47 46 8
48 0 2
48 1 7
48 2 2
48 3 1
48 4 6
48 5 6
48 6 3
48 7 6
48 8 2
48 9 3
48 10 8
48 11 9
48 12 3
48 13 2
48 14 12
48 15 2
48 16 9
48 17 10
48 18 6
48 19 12
48 20 6
48 21 4
48 22 11
48 23 7
48 24 3
48 25 1
48 26 5
48 27 12
48 28 3
48 29 11
48 30 11
48 31 1
48 32 2
48 33 1
48 34 3
48 35 5
48 36 7
48 37 3
48 38 11
48 39 12
48 40 2
48 41 2
48 42 10
48 43 1
48 44 2
48 45 4
48 46 6
48 47 3
49 0 11
49 1 9
49 2 3
49 3 8
49 4 1
49 5 8
49 6 12
49 7 12
49 8 7
49 9 1
49 10 1
49 11 2
49 12 12
49 13 8
49 14 2
49 15 10
49 16 7
49 17 10
49 18 8
49 19 8
49 20 2
49 21 10
49 22 6
49 23 7
49 24 2
49 25 7
49 26 10
49 27 4
49 28 5
49 29 4
49 30 6
49 31 4
49 32 7
49 33 3
49 34 10
49 35 2
49 36 12
49 37 9
49 38 11
49 39 8
49 40 6
49 41 3
49 42 3
49 43 10
49 44 1
49 45 9
49 46 12
49 47 1
49 48 7
50 0 8
50 1 12
50 2 8
50 3 12
50 4 9
50 5 6
50 6 8
50 7 10
50 8 4
50 9 7
50 10 4
50 11 12
50 12 6
50 13 12
50 14 6
50 15 5
50 16 10
50 17 7
50 18 10
50 19 7
50 20 8
50 21 9
50 22 7
50 23 2
50 24 12
50 25 5
50 26 3
50 27 11
50 28 7
50 29 7
50 30 3
50 31 5
50 32 11
50 33 12
50 34 1
50 35 3
50 36 2
50 37 2
50 38 9
50 39 10
50 40 2
50 41 9
50 42 4
50 43 6
50 44 4
50 45 9
50 46 12
50 47 3
50 48 8
50 49 3
51 0 4
51 1 7
51 2 7
51 3 6
51 4 3
51 5 11
51 6 7
51 7 1
51 8 1
51 9 7
51 10 10
51 11 2
51 12 9
51 13 1
51 14 12
51 15 11
51 16 3
51 17 7
51 18 11
51 19 1
51 20 11
51 21 6
51 22 6
51 23 3
51 24 5
51 25 9
51 26 7
51 27 2
51 28 4
51 29 4
51 30 8
51 31 4
51 32 8
51 33 9
51 34 1
51 35 2
51 36 5
51 37 6
51 38 5
51 39 5
51 40 9
51 41 1
51 42 5
51 43 10
51 44 5
51 45 3
51 46 4
51 47 6
51 48 11
51 49 8
51 50 7
52 0 11
52 1 10
52 2 4
52 3 11
52 4 2
52 5 2
52 6 6
52 7 6
52 8 8
52 9 3
52 10 2
52 11 1
52 12 4
52 13 10
52 14 12
52 15 12
52 16 7
52 17 12
52 18 1
52 19 10
52 20 9
52 21 10
52 22 5
52 23 11
52 24 3
52 25 3
52 26 5
52 27 4
52 28 1
52 29 10
52 30 7
52 31 1
52 32 11
52 33 9
52 34 3
52 35 2
52 36 10
52 37 9
52 38 1
52 39 12
52 40 10
52 41 2
52 42 4
52 43 5
52 44 7
52 45 3
52 46 6
52 47 2
52 48 1
52 49 12
52 50 1
52 51 5
53 0 7
53 1 9
53 2 8
53 3 7
53 4 2
53 5 3
53 6 9
53 7 11
53 8 4
53 9 12
53 10 2
53 11 5
53 12 7
53 13 1
53 14 3
53 15 5
53 16 5
53 17 9
53 18 1
53 19 8
53 20 4
53 21 1
53 22 10
53 23 4
53 24 10
53 25 5
53 26 8
53 27 10
53 28 5
53 29 2
53 30 1
53 31 5
53 32 9
53 33 2
53 34 3
53 35 4
53 36 2
53 37 9
53 38 1
53 39 5
53 40 4
53 41 3
53 42 11
53 43 1
53 44 9
53 45 11
53 46 4
53 47 5
53 48 5
53 49 9
53 50 10
53 51 12
53 52 3
54 0 9
54 1 12
54 2 3
54 3 12
54 4 12
54 5 7
54 6 8
54 7 6
54 8 9
54 9 2
54 10 7
54 11 8
54 12 5
54 13 2
54 14 4
54 15 4
54 16 5
54 17 2
54 18 9
54 19 9
54 20 10
54 21 11
54 22 10
54 23 5
54 24 10
54 25 8
54 26 4
54 27 5
54 28 5
54 29 7
54 30 7
54 31 5
54 32 2
54 33 10
54 34 5
54 35 9
54 36 11
54 37 12
54 38 11
54 39 7
54 40 8
54 41 10
54 42 4
54 43 5
54 44 12
54 45 9
54 46 8
54 47 11
54 48 7
54 49 4
54 50 9
54 51 6
54 52 12
54 53 11
55 0 5
55 1 4
55 2 9
55 3 9
55 4 6
55 5 12
55 6 2
55 7 4
55 8 3
55 9 2
55 10 2
55 11 1
55 12 7
55 13 2
55 14 4
55 15 8
55 16 7
55 17 3
55 18 11
55 19 5
55 20 1
55 21 11
55 22 5
55 23 5
55 24 12
55 25 10
55 26 1
55 27 6
55 28 12
55 29 12
55 30 10
55 31 2
55 32 4
55 33 10
55 34 10
55 35 11
55 36 1
55 37 9
55 38 1
55 39 2
55 40 2
55 41 9
55 42 2
55 43 7
55 44 12
55 45 4
55 46 3
55 47 1
55 48 7
55 49 7
55 50 6
55 51 11
55 52 4
55 53 12
55 54 10
56 0 5
56 1 1
56 2 8
56 3 12
56 4 6
56 5 7
56 6 3
56 7 9
56 8 9
56 9 12
56 10 1
56 11 3
56 12 8
56 13 4
56 14 9
56 15 5
56 16 9
56 17 3
56 18 5
56 19 10
56 20 2
56 21 8
56 22 2
56 23 2
56 24 3
56 25 2
56 26 4
56 27 10
56 28 7
56 29 10
56 30 10
56 31 6
56 32 1
56 33 8
56 34 11
56 35 1
56 36 9
56 37 5
56 38 2
56 39 4
56 40 12
56 41 1
56 42 6
56 43 10
56 44 10
56 45 10
56 46 7
56 47 2
56 48 9
56 49 10
56 50 9
56 51 6
56 52 11
56 53 2
56 54 11
56 55 6
57 0 3
57 1 4
57 2 12
57 3 6
57 4 7
57 5 8
57 6 7
57 7 12
57 8 10
57 9 1
57 10 11
57 11 6
57 12 2
57 13 12
57 14 6
57 15 9
57 16 1
57 17 7
57 18 3
57 19 5
57 20 11
57 21 10
57 22 1
57 23 1
57 24 10
57 25 3
57 26 5
57 27 5
57 28 3
57 29 8
57 30 11
57 31 11
57 32 9
57 33 12
57 34 6
57 35 9
57 36 7
57 37 4
57 38 2
57 39 11
57 40 11
57 41 6
57 42 4
57 43 8
57 44 7
57 45 6
57 46 4
57 47 9
57 48 10
57 49 11
57 50 4
57 51 11
57 52 9
57 53 10
57 54 5
57 55 9
57 56 11
58 0 9
58 1 12
58 2 7
58 3 4
58 4 8
58 5 2
58 6 12
58 7 1
58 8 3
58 9 4
58 10 8
58 11 8
58 12 3
58 13 10
58 14 8
58 15 9
58 16 6
58 17 11
58 18 8
58 19 5
58 20 10
58 21 9
58 22 8
58 23 3
58 24 12
58 25 9
58 26 7
58 27 4
58 28 6
58 29 3
58 30 10
58 31 4
58 32 12
58 33 1
58 34 2
58 35 10
58 36 10
58 37 12
58 38 11
58 39 5
58 40 1
58 41 9
58 42 12
58 43 7
58 44 8
58 45 12
58 46 12
58 47 7
58 48 8
58 49 4
58 50 11
58 51 5
58 52 6
58 53 7
58 54 1
58 55 2
58 56 11
58 57 7
59 0 3
59 1 3
59 2 2
59 3 7
59 4 3
59 5 1
59 6 8
59 7 9
59 8 6
59 9 6
59 10 7
59 11 10
59 12 2
59 13 8
59 14 3
59 15 3
59 16 8
59 17 9
59 18 7
59 19 7
59 20 9
59 21 6
59 22 11
59 23 6
59 24 12
59 25 5
59 26 6
59 27 10
59 28 5
59 29 1
59 30 3
59 31 4
59 32 2
59 33 8
59 34 4
59 35 7
59 36 3
59 37 6
59 38 1
59 39 6
59 40 4
59 41 1
59 42 6
59 43 8
59 44 1
59 45 3
59 46 7
59 47 2
59 48 9
59 49 10
59 50 6
59 51 11
59 52 6
59 53 10
59 54 12
59 55 3
59 56 4
59 57 7
59 58 8
60 0 9
60 1 5
60 2 7
60 3 12
60 4 10
60 5 6
60 6 6
60 7 8
60 8 11
60 9 8
60 10 2
60 11 2
60 12 4
60 13 2
60 14 4
60 15 5
60 16 10
60 17 7
60 18 5
60 19 2
60 20 2
60 21 7
60 22 1
60 23 12
60 24 4
60 25 12
60 26 9
60 27 2
60 28 3
60 29 5
60 30 8
60 31 4
60 32 12
60 33 4
60 34 2
60 35 4
60 36 6
60 37 1
60 38 7
60 39 5
60 40 8
60 41 1
60 42 6
60 43 9
60 44 3
60 45 11
60 46 7
60 47 10
60 48 10
60 49 10
60 50 3
60 51 1
60 52 6
60 53 1
60 54 8
60 55 3
60 56 8
60 57 3
60 58 1
60 59 6
61 0 6
61 1 1
61 2 1
61 3 5
61 4 10
61 5 10
61 6 9
61 7 8
61 8 8
61 9 2
61 10 12
61 11 2
61 12 10
61 13 8
61 14 1
61 15 5
61 16 10
61 17 6
61 18 7
61 19 5
61 20 6
61 21 11
61 22 12
61 23 5
61 24 11
61 25 10
61 26 7
61 27 1
61 28 3
61 29 10
61 30 12
61 31 4
61 32 1
61 33 8
61 34 1
61 35 5
61 36 2
61 37 4
61 38 7
61 39 2
61 40 6
61 41 11
61 42 9
61 43 4
61 44 1
61 45 12
61 46 10
61 47 11
61 48 3
61 49 10
61 50 7
61 51 1
61 52 3
61 53 5
61 54 2
61 55 5
61 56 11
61 57 3
61 58 10
61 59 11
61 60 4
62 0 7
62 1 4
62 2 12
62 3 7
62 4 11
62 5 10
62 6 8
62 7 9
62 8 1
62 9 6
62 10 9
62 11 2
62 12 3
62 13 7
62 14 3
62 15 3
62 16 4
62 17 4
62 18 4
62 19 4
62 20 1
62 21 12
62 22 2
62 23 2
62 24 1
62 25 7
62 26 6
62 27 10
62 28 7
62 29 10
62 30 4
62 31 8
62 32 6
62 33 8
62 34 3
62 35 12
62 36 7
62 37 9
62 38 6
62 39 6
62 40 7
62 41 12
62 42 12
62 43 4
62 44 3
62 45 7
62 46 2
62 47 4
62 48 8
62 49 5
62 50 1
62 51 10
62 52 8
62 53 9
62 54 6
62 55 3
62 56 7
62 57 8
62 58 9
62 59 3
62 60 4
62 61 1
63 0 12
63 1 4
63 2 1
63 3 10
63 4 4
63 5 5
63 6 1
63 7 6
63 8 4
63 9 3
63 10 1
63 11 8
63 12 9
63 13 8
63 14 10
63 15 9
63 16 7
63 17 9
63 18 3
63 19 1
63 20 3
63 21 8
63 22 6
63 23 6
63 24 10
63 25 6
63 26 2
63 27 7
63 28 6
63 29 10
63 30 2
63 31 12
63 32 8
63 33 5
63 34 12
63 35 4
63 36 1
63 37 3
63 38 2
63 39 1
63 40 12
63 41 7
63 42 7
63 43 10
63 44 11
63 45 9
63 46 12
63 47 8
63 48 2
63 49 3
63 50 12
63 51 2
63 52 8
63 53 9
63 54 2
63 55 6
63 56 4
63 57 11
63 58 12
63 59 4
63 60 6
63 61 7
63 62 4
64 0 3
64 1 9
64 2 5
64 3 4
64 4 5
64 5 3
64 6 7
64 7 7
64 8 5
64 9 8
64 10 3
64 11 5
64 12 4
64 13 10
64 14 7
64 15 4
64 16 3
64 17 5
64 18 5
64 19 6
64 20 6
64 21 10
64 22 8
64 23 1
64 24 12
64 25 11
64 26 2
64 27 4
64 28 10
64 29 7
64 30 2
64 31 7
64 32 12
64 33 12
64 34 4
64 35 4
64 36 4
64 37 4
64 38 1
64 39 7
64 40 10
64 41 3
64 42 9
64 43 6
64 44 12
64 45 2
64 46 4
64 47 1
64 48 3
64 49 1
64 50 6
64 51 7
64 52 4
64 53 6
64 54 2
64 55 6
64 56 6
64 57 10
64 58 12
64 59 8
64 60 5
64 61 5
64 62 10
64 63 5
65 0 8
65 1 12
65 2 9
65 3 8
65 4 5
65 5 4
65 6 4
65 7 11
65 8 11
65 9 3
65 10 4
65 11 8
65 12 6
65 13 6
65 14 10
65 15 4
65 16 2
65 17 1
65 18 12
65 19 11
65 20 3
65 21 7
65 22 12
65 23 12
65 24 6
65 25 7
65 26 2
65 27 10
65 28 6
65 29 4
65 30 10
65 31 2
65 32 5
65 33 3
65 34 12
65 35 10
65 36 3
65 37 1
65 38 11
65 39 11
65 40 1
65 41 4
65 42 4
65 43 8
65 44 11
65 45 1
65 46 4
65 47 12
65 48 7
65 49 12
65 50 1
65 51 5
65 52 4
65 53 3
65 54 6
65 55 2
65 56 2
65 57 3
65 58 12
65 59 5
65 60 2
65 61 8
65 62 2
65 63 5
65 64 5
66 0 2
66 1 8
66 2 3
66 3 9
66 4 2
66 5 6
66 6 1
66 7 12
66 8 10
66 9 2
66 10 5
66 11 5
66 12 1
66 13 4
66 14 6
66 15 2
66 16 8
66 17 8
66 18 7
66 19 8
66 20 5
66 21 3
66 22 3
66 23 12
66 24 5
66 25 10
66 26 4
66 27 1
66 28 7
66 29 3
66 30 10
66 31 6
66 32 7
66 33 12
66 34 12
66 35 5
66 36 8
66 37 4
66 38 7
66 39 11
66 40 10
66 41 7
66 42 12
66 43 11
66 44 12
66 45 11
66 46 12
66 47 12
66 48 3
66 49 10
66 50 3
66 51 12
66 52 4
66 53 8
66 54 11
66 55 5
66 56 9
66 57 12
66 58 8
66 59 9
66 60 7
66 61 7
66 62 6
66 63 12
66 64 5
66 65 11
67 0 9
67 1 6
67 2 5
67 3 9
67 4 11
67 5 7
67 6 5
67 7 6
67 8 11
67 9 6
67 10 4
67 11 6
67 12 10
67 13 4
67 14 4
67 15 5
67 16 2
67 17 1
67 18 5
67 19 9
67 20 9
67 21 6
67 22 6
67 23 5
67 24 4
67 25 6
67 26 7
67 27 4
67 28 11
67 29 2
67 30 4
67 31 6
67 32 12
67 33 3
67 34 1
67 35 12
67 36 10
67 37 2
67 38 5
67 39 10
67 40 6
67 41 7
67 42 3
67 43 10
67 44 2
67 45 5
67 46 10
67 47 10
67 48 12
67 49 1
67 50 9
67 51 11
67 52 12
67 53 9
67 54 6
67 55 12
67 56 7
67 57 12
67 58 11
67 59 1
67 60 5
67 61 1
67 62 5
67 63 7
67 64 1
67 65 8
67 66 5
68 0 12
68 1 7
68 2 1
68 3 3
68 4 10
68 5 7
68 6 1
68 7 5
68 8 11
68 9 7
68 10 12
68 11 10
68 12 7
68 13 2
68 14 5
68 15 9
68 16 1
68 17 2
68 18 3
68 19 6
68 20 8
68 21 9
68 22 12
68 23 8
68 24 5
68 25 1
68 26 1
68 27 10
68 28 8
68 29 9
68 30 2
68 31 6
68 32 10
68 33 1
68 34 7
68 35 4
68 36 12
68 37 12
68 38 5
68 39 4
68 40 8
68 41 1
68 42 12
68 43 11
68 44 1
68 45 6
68 46 11
68 47 1
68 48 11
68 49 11
68 50 1
68 51 10
68 52 7
68 53 10
68 54 9
68 55 8
68 56 9
68 57 2
68 58 5
68 59 5
68 60 1
68 61 6
68 62 4
68 63 8
68 64 3
68 65 1
68 66 2
68 67 10
69 0 8
69 1 7
69 2 9
69 3 4
69 4 5
69 5 3
69 6 2
69 7 11
69 8 3
69 9 1
69 10 3
69 11 11
69 12 3
69 13 1
69 14 3
69 15 5
69 16 3
69 17 5
69 18 1
69 19 9
69 20 7
69 21 9
69 22 4
69 23 7
69 24 4
69 25 11
69 26 6
69 27 9
69 28 9
69 29 12
69 30 5
69 31 5
69 32 7
69 33 5
69 34 3
69 35 10
69 36 9
69 37 3
69 38 8
69 39 12
69 40 10
69 41 8
69 42 9
69 43 10
69 44 9
69 45 5
69 46 12
69 47 12
69 48 10
69 49 11
69 50 7
69 51 1
69 52 7
69 53 6
69 54 1
69 55 6
69 56 1
69 57 5
69 58 3
69 59 5
69 60 11
69 61 8
69 62 10
69 63 11
69 64 7
69 65 12
69 66 2
69 67 5
69 68 2
